tsp_instances/TSP50/instance76.tsp
NODE_COORD_SECTION
0 189 171
1 5 181
2 56 48
3 80 7
4 155 164
5 165 50
6 57 102
7 147 164
8 200 42
9 0 36
10 103 195
11 120 190
12 15 193
13 112 149
14 100 14
15 83 19
16 32 108
17 30 198
18 185 96
19 134 178
20 7 125
21 147 22
22 182 63
23 30 46
24 151 120
25 63 44
26 197 130
27 188 178
28 193 185
29 104 20
30 170 68
31 129 40
32 116 76
33 55 6
34 183 176
35 68 103
36 64 71
37 83 198
38 4 184
39 93 153
40 76 101
41 96 198
42 134 78
43 162 136
44 109 45
45 157 121
46 145 50
47 152 95
48 86 92
49 171 50
