tsp_instances/TSP50/instance76.opt.tour
TOUR_SECTION
1
27
44
46
25
48
19
31
23
9
50
6
22
32
47
43
33
45
30
15
16
4
34
10
24
3
26
37
49
41
36
7
17
21
2
39
13
18
38
42
11
12
40
14
20
8
5
35
28
29
-1